(set-info :smt-lib-version 2.6)
(set-logic UF)
(set-info :source |Benchmarks from the paper: "Extending Sledgehammer with SMT Solvers" by Jasmin Blanchette, Sascha Bohme, and Lawrence C. Paulson, CADE 2011.  Translated to SMT2 by Andrew Reynolds and Morgan Deters.|)
(set-info :category "industrial")
(set-info :status sat)
(declare-sort S1 0)
(declare-sort S2 0)
(declare-sort S3 0)
(declare-sort S4 0)
(declare-sort S5 0)
(declare-sort S6 0)
(declare-sort S7 0)
(declare-sort S8 0)
(declare-sort S9 0)
(declare-sort S10 0)
(declare-sort S11 0)
(declare-sort S12 0)
(declare-sort S13 0)
(declare-sort S14 0)
(declare-sort S15 0)
(declare-sort S16 0)
(declare-sort S17 0)
(declare-sort S18 0)
(declare-sort S19 0)
(declare-sort S20 0)
(declare-sort S21 0)
(declare-sort S22 0)
(declare-sort S23 0)
(declare-sort S24 0)
(declare-sort S25 0)
(declare-sort S26 0)
(declare-sort S27 0)
(declare-sort S28 0)
(declare-sort S29 0)
(declare-sort S30 0)
(declare-fun f1 () S1)
(declare-fun f2 () S1)
(declare-fun f3 (S3 S2) S4)
(declare-fun f4 () S3)
(declare-fun f5 (S5 S4) S4)
(declare-fun f6 (S6 S4) S5)
(declare-fun f7 () S6)
(declare-fun f8 () S3)
(declare-fun f9 (S7 S2) S2)
(declare-fun f10 (S8 S2) S7)
(declare-fun f11 () S8)
(declare-fun f12 () S8)
(declare-fun f13 (S9 S10) S2)
(declare-fun f14 () S9)
(declare-fun f15 (S11 S10) S10)
(declare-fun f16 () S11)
(declare-fun f17 () S11)
(declare-fun f18 () S10)
(declare-fun f19 () S2)
(declare-fun f20 (S12 S4) S3)
(declare-fun f21 () S12)
(declare-fun f22 () S3)
(declare-fun f23 () S2)
(declare-fun f24 () S2)
(declare-fun f25 () S3)
(declare-fun f26 () S3)
(declare-fun f27 (S13 S3) S3)
(declare-fun f28 () S13)
(declare-fun f29 (S14 S7) S7)
(declare-fun f30 () S14)
(declare-fun f31 (S15 S2) S10)
(declare-fun f32 (S16 S15) S15)
(declare-fun f33 () S16)
(declare-fun f34 () S13)
(declare-fun f35 () S14)
(declare-fun f36 () S16)
(declare-fun f37 (S17 S2) S3)
(declare-fun f38 (S18 S3) S17)
(declare-fun f39 (S19 S2) S18)
(declare-fun f40 () S19)
(declare-fun f41 (S20 S21) S4)
(declare-fun f42 (S22 S3) S20)
(declare-fun f43 () S22)
(declare-fun f44 (S2 S2) S21)
(declare-fun f45 () S2)
(declare-fun f46 () S6)
(declare-fun f47 (S2 S2) S1)
(declare-fun f48 (S2 S2) S1)
(declare-fun f49 (S23 S21) S2)
(declare-fun f50 (S24 S7) S23)
(declare-fun f51 () S24)
(declare-fun f52 (S25 S21) S10)
(declare-fun f53 (S26 S15) S25)
(declare-fun f54 () S26)
(declare-fun f55 (S27 S10) S11)
(declare-fun f56 () S27)
(declare-fun f57 () S8)
(declare-fun f58 () S6)
(declare-fun f59 (S28 S10) S4)
(declare-fun f60 () S28)
(declare-fun f61 (S29 S10) S15)
(declare-fun f62 () S29)
(declare-fun f63 () S27)
(declare-fun f64 () S11)
(declare-fun f65 () S10)
(declare-fun f66 (S30 S2) S13)
(declare-fun f67 () S30)
(declare-fun f68 () S4)
(declare-fun f69 () S10)
(declare-fun f70 () S4)
(declare-fun f71 (S10 S10) S1)
(declare-fun f72 (S10 S10) S1)
(assert (not (= f1 f2)))
(assert (forall ((?v0 S2)) (let ((?v_0 (f10 f12 (f13 f14 (f15 f16 (f15 f17 f18)))))) (let ((?v_1 (f9 (f10 f11 (f9 ?v_0 ?v0)) f19))) (= (f3 f4 ?v0) (f5 (f6 f7 (f3 f8 ?v_1)) (f3 (f20 f21 (f3 f22 (f9 ?v_0 f23))) (f9 (f10 f12 f24) ?v_1))))))))
(assert (forall ((?v0 S2)) (let ((?v_0 (f10 f12 (f13 f14 (f15 f16 (f15 f17 f18)))))) (let ((?v_1 (f9 ?v_0 ?v0))) (= (f3 f25 ?v0) (f5 (f6 f7 (f3 f8 ?v_1)) (f3 (f20 f21 (f3 f22 (f9 ?v_0 f23))) (f9 (f10 f12 f24) ?v_1))))))))
(assert (forall ((?v0 S2)) (= (f3 f26 ?v0) (f5 (f6 f7 (f3 f8 ?v0)) (f3 (f20 f21 (f3 f22 (f9 (f10 f12 (f13 f14 (f15 f16 (f15 f17 f18)))) f23))) (f9 (f10 f12 f24) ?v0))))))
(assert (forall ((?v0 S3) (?v1 S2)) (= (f3 (f27 f28 ?v0) ?v1) (f3 ?v0 (f9 (f10 f11 (f9 (f10 f12 (f13 f14 (f15 f16 (f15 f17 f18)))) ?v1)) f19)))))
(assert (forall ((?v0 S7) (?v1 S2)) (= (f9 (f29 f30 ?v0) ?v1) (f9 ?v0 (f9 (f10 f11 (f9 (f10 f12 (f13 f14 (f15 f16 (f15 f17 f18)))) ?v1)) f19)))))
(assert (forall ((?v0 S15) (?v1 S2)) (= (f31 (f32 f33 ?v0) ?v1) (f31 ?v0 (f9 (f10 f11 (f9 (f10 f12 (f13 f14 (f15 f16 (f15 f17 f18)))) ?v1)) f19)))))
(assert (forall ((?v0 S3) (?v1 S2)) (= (f3 (f27 f34 ?v0) ?v1) (f3 ?v0 (f9 (f10 f12 (f13 f14 (f15 f16 (f15 f17 f18)))) ?v1)))))
(assert (forall ((?v0 S7) (?v1 S2)) (= (f9 (f29 f35 ?v0) ?v1) (f9 ?v0 (f9 (f10 f12 (f13 f14 (f15 f16 (f15 f17 f18)))) ?v1)))))
(assert (forall ((?v0 S15) (?v1 S2)) (= (f31 (f32 f36 ?v0) ?v1) (f31 ?v0 (f9 (f10 f12 (f13 f14 (f15 f16 (f15 f17 f18)))) ?v1)))))
(assert (forall ((?v0 S2) (?v1 S3) (?v2 S2) (?v3 S2)) (= (f3 (f37 (f38 (f39 f40 ?v0) ?v1) ?v2) ?v3) (f5 (f6 f7 (f3 ?v1 ?v3)) (f3 (f20 f21 (f3 f22 ?v0)) (f9 (f10 f12 ?v2) ?v3))))))
(assert (let ((?v_0 (f44 f45 f23))) (not (= (f41 (f42 f43 f26) (f44 f45 (f9 (f10 f12 (f13 f14 (f15 f16 (f15 f17 f18)))) f23))) (f5 (f6 f46 (f41 (f42 f43 f25) ?v_0)) (f41 (f42 f43 f4) ?v_0))))))
(assert (= (f47 f45 f23) f1))
(assert (= (f48 f23 f24) f1))
(assert (forall ((?v0 S7)) (let ((?v_1 (f15 f17 f18))) (let ((?v_0 (f15 f16 ?v_1))) (= (f49 (f50 f51 ?v0) (f44 f45 (f13 f14 (f15 f16 ?v_0)))) (f9 (f10 f11 (f9 (f10 f11 (f9 (f10 f11 (f9 ?v0 f45)) (f9 ?v0 f19))) (f9 ?v0 (f13 f14 ?v_0)))) (f9 ?v0 (f13 f14 (f15 f17 ?v_1)))))))))
(assert (forall ((?v0 S3)) (let ((?v_1 (f15 f17 f18))) (let ((?v_0 (f15 f16 ?v_1))) (= (f41 (f42 f43 ?v0) (f44 f45 (f13 f14 (f15 f16 ?v_0)))) (f5 (f6 f46 (f5 (f6 f46 (f5 (f6 f46 (f3 ?v0 f45)) (f3 ?v0 f19))) (f3 ?v0 (f13 f14 ?v_0)))) (f3 ?v0 (f13 f14 (f15 f17 ?v_1)))))))))
(assert (forall ((?v0 S15)) (let ((?v_1 (f15 f17 f18))) (let ((?v_0 (f15 f16 ?v_1))) (= (f52 (f53 f54 ?v0) (f44 f45 (f13 f14 (f15 f16 ?v_0)))) (f15 (f55 f56 (f15 (f55 f56 (f15 (f55 f56 (f31 ?v0 f45)) (f31 ?v0 f19))) (f31 ?v0 (f13 f14 ?v_0)))) (f31 ?v0 (f13 f14 (f15 f17 ?v_1)))))))))
(assert (forall ((?v0 S7) (?v1 S2)) (let ((?v_0 (f44 f45 ?v1))) (= (f49 (f50 f51 ?v0) (f44 f45 (f9 (f10 f12 (f13 f14 (f15 f16 (f15 f17 f18)))) ?v1))) (f9 (f10 f11 (f49 (f50 f51 (f29 f35 ?v0)) ?v_0)) (f49 (f50 f51 (f29 f30 ?v0)) ?v_0))))))
(assert (forall ((?v0 S3) (?v1 S2)) (let ((?v_0 (f44 f45 ?v1))) (= (f41 (f42 f43 ?v0) (f44 f45 (f9 (f10 f12 (f13 f14 (f15 f16 (f15 f17 f18)))) ?v1))) (f5 (f6 f46 (f41 (f42 f43 (f27 f34 ?v0)) ?v_0)) (f41 (f42 f43 (f27 f28 ?v0)) ?v_0))))))
(assert (forall ((?v0 S15) (?v1 S2)) (let ((?v_0 (f44 f45 ?v1))) (= (f52 (f53 f54 ?v0) (f44 f45 (f9 (f10 f12 (f13 f14 (f15 f16 (f15 f17 f18)))) ?v1))) (f15 (f55 f56 (f52 (f53 f54 (f32 f36 ?v0)) ?v_0)) (f52 (f53 f54 (f32 f33 ?v0)) ?v_0))))))
(assert (forall ((?v0 S2) (?v1 S2) (?v2 S2)) (let ((?v_0 (f10 f12 (f13 f14 (f15 f16 (f15 f17 f18))))) (?v_1 (f10 f12 ?v1))) (= (f3 (f20 f21 (f3 f22 (f9 ?v_0 ?v0))) (f9 ?v_1 (f9 ?v_0 ?v2))) (f3 (f20 f21 (f3 f22 ?v0)) (f9 ?v_1 ?v2))))))
(assert (forall ((?v0 S2) (?v1 S2)) (let ((?v_0 (f13 f14 (f15 f16 (f15 f17 f18))))) (= (f9 (f10 f57 (f9 (f10 f11 ?v0) ?v1)) ?v_0) (f9 (f10 f11 (f9 (f10 f11 (f9 (f10 f57 ?v0) ?v_0)) (f9 (f10 f57 ?v1) ?v_0))) (f9 (f10 f12 (f9 (f10 f12 ?v_0) ?v0)) ?v1))))))
(assert (forall ((?v0 S4) (?v1 S4)) (let ((?v_1 (f15 f16 (f15 f17 f18)))) (let ((?v_0 (f13 f14 ?v_1))) (= (f3 (f20 f21 (f5 (f6 f46 ?v0) ?v1)) ?v_0) (f5 (f6 f46 (f5 (f6 f46 (f3 (f20 f21 ?v0) ?v_0)) (f3 (f20 f21 ?v1) ?v_0))) (f5 (f6 f58 (f5 (f6 f58 (f59 f60 ?v_1)) ?v0)) ?v1)))))))
(assert (forall ((?v0 S10) (?v1 S10)) (let ((?v_1 (f15 f16 (f15 f17 f18)))) (let ((?v_0 (f13 f14 ?v_1))) (= (f31 (f61 f62 (f15 (f55 f56 ?v0) ?v1)) ?v_0) (f15 (f55 f56 (f15 (f55 f56 (f31 (f61 f62 ?v0) ?v_0)) (f31 (f61 f62 ?v1) ?v_0))) (f15 (f55 f63 (f15 (f55 f63 (f15 f64 ?v_1)) ?v0)) ?v1)))))))
(assert (forall ((?v0 S4) (?v1 S2)) (let ((?v_0 (f20 f21 ?v0))) (let ((?v_1 (f3 ?v_0 ?v1))) (= (f3 ?v_0 (f9 (f10 f12 (f13 f14 (f15 f16 (f15 f17 f18)))) ?v1)) (f5 (f6 f58 ?v_1) ?v_1))))))
(assert (forall ((?v0 S2) (?v1 S2)) (let ((?v_0 (f10 f57 ?v0))) (let ((?v_1 (f9 ?v_0 ?v1))) (= (f9 ?v_0 (f9 (f10 f12 (f13 f14 (f15 f16 (f15 f17 f18)))) ?v1)) (f9 (f10 f12 ?v_1) ?v_1))))))
(assert (forall ((?v0 S10) (?v1 S2)) (let ((?v_0 (f61 f62 ?v0))) (let ((?v_1 (f31 ?v_0 ?v1))) (= (f31 ?v_0 (f9 (f10 f12 (f13 f14 (f15 f16 (f15 f17 f18)))) ?v1)) (f15 (f55 f63 ?v_1) ?v_1))))))
(assert (forall ((?v0 S10)) (let ((?v_0 (f59 f60 ?v0))) (= (f3 (f20 f21 ?v_0) (f13 f14 (f15 f16 (f15 f17 f18)))) (f5 (f6 f58 ?v_0) ?v_0)))))
(assert (forall ((?v0 S10)) (let ((?v_0 (f13 f14 ?v0))) (= (f9 (f10 f57 ?v_0) (f13 f14 (f15 f16 (f15 f17 f18)))) (f9 (f10 f12 ?v_0) ?v_0)))))
(assert (forall ((?v0 S10)) (let ((?v_0 (f15 f64 ?v0))) (= (f31 (f61 f62 ?v_0) (f13 f14 (f15 f16 (f15 f17 f18)))) (f15 (f55 f63 ?v_0) ?v_0)))))
(assert (forall ((?v0 S10) (?v1 S10)) (let ((?v_0 (f13 f14 (f15 f16 (f15 f17 f18))))) (= (= (f15 (f55 f56 (f31 (f61 f62 ?v0) ?v_0)) (f31 (f61 f62 ?v1) ?v_0)) f65) (and (= ?v0 f65) (= ?v1 f65))))))
(assert (forall ((?v0 S2) (?v1 S3) (?v2 S2)) (= (f3 (f27 (f66 f67 ?v0) ?v1) ?v2) (f41 (f42 f43 (f37 (f38 (f39 f40 ?v0) ?v1) ?v2)) (f44 f45 ?v0)))))
(assert (= (f9 (f10 f11 f19) f19) (f13 f14 (f15 f16 (f15 f17 f18)))))
(assert (forall ((?v0 S2)) (= (f9 (f10 f12 ?v0) (f13 f14 (f15 f16 (f15 f17 f18)))) (f9 (f10 f11 ?v0) ?v0))))
(assert (forall ((?v0 S2)) (= (f9 (f10 f12 (f13 f14 (f15 f16 (f15 f17 f18)))) ?v0) (f9 (f10 f11 ?v0) ?v0))))
(assert (forall ((?v0 S4) (?v1 S2)) (let ((?v_1 (f13 f14 (f15 f16 (f15 f17 f18)))) (?v_0 (f20 f21 ?v0))) (= (f3 ?v_0 (f9 (f10 f12 ?v_1) ?v1)) (f3 (f20 f21 (f3 ?v_0 ?v1)) ?v_1)))))
(assert (forall ((?v0 S2) (?v1 S2)) (let ((?v_1 (f13 f14 (f15 f16 (f15 f17 f18)))) (?v_0 (f10 f57 ?v0))) (= (f9 ?v_0 (f9 (f10 f12 ?v_1) ?v1)) (f9 (f10 f57 (f9 ?v_0 ?v1)) ?v_1)))))
(assert (forall ((?v0 S10) (?v1 S2)) (let ((?v_1 (f13 f14 (f15 f16 (f15 f17 f18)))) (?v_0 (f61 f62 ?v0))) (= (f31 ?v_0 (f9 (f10 f12 ?v_1) ?v1)) (f31 (f61 f62 (f31 ?v_0 ?v1)) ?v_1)))))
(assert (= (f3 (f20 f21 f68) (f13 f14 (f15 f16 (f15 f17 f18)))) f68))
(assert (= (f31 (f61 f62 f69) (f13 f14 (f15 f16 (f15 f17 f18)))) f69))
(assert (= (f9 (f10 f57 f19) (f13 f14 (f15 f16 (f15 f17 f18)))) f19))
(assert (forall ((?v0 S4)) (= (f5 (f6 f58 ?v0) ?v0) (f3 (f20 f21 ?v0) (f13 f14 (f15 f16 (f15 f17 f18)))))))
(assert (forall ((?v0 S2)) (= (f9 (f10 f12 ?v0) ?v0) (f9 (f10 f57 ?v0) (f13 f14 (f15 f16 (f15 f17 f18)))))))
(assert (forall ((?v0 S10)) (= (f15 (f55 f63 ?v0) ?v0) (f31 (f61 f62 ?v0) (f13 f14 (f15 f16 (f15 f17 f18)))))))
(assert (forall ((?v0 S4)) (= (f3 (f20 f21 ?v0) (f13 f14 (f15 f16 (f15 f17 f18)))) (f5 (f6 f58 ?v0) ?v0))))
(assert (forall ((?v0 S2)) (= (f9 (f10 f57 ?v0) (f13 f14 (f15 f16 (f15 f17 f18)))) (f9 (f10 f12 ?v0) ?v0))))
(assert (forall ((?v0 S10)) (= (f31 (f61 f62 ?v0) (f13 f14 (f15 f16 (f15 f17 f18)))) (f15 (f55 f63 ?v0) ?v0))))
(assert (forall ((?v0 S2)) (not (= (f3 f22 ?v0) f70))))
(assert (forall ((?v0 S10) (?v1 S10)) (= (= (f71 f65 (f15 (f55 f56 (f15 (f55 f63 ?v0) ?v0)) (f15 (f55 f63 ?v1) ?v1))) f1) (or (not (= ?v0 f65)) (not (= ?v1 f65))))))
(assert (forall ((?v0 S10) (?v1 S10)) (not (= (f71 (f15 (f55 f56 (f15 (f55 f63 ?v0) ?v0)) (f15 (f55 f63 ?v1) ?v1)) f65) f1))))
(assert (forall ((?v0 S10) (?v1 S10)) (= (= (f72 (f15 (f55 f56 (f15 (f55 f63 ?v0) ?v0)) (f15 (f55 f63 ?v1) ?v1)) f65) f1) (and (= ?v0 f65) (= ?v1 f65)))))
(assert (forall ((?v0 S10) (?v1 S10)) (= (f72 f65 (f15 (f55 f56 (f15 (f55 f63 ?v0) ?v0)) (f15 (f55 f63 ?v1) ?v1))) f1)))
(assert (forall ((?v0 S10) (?v1 S10)) (let ((?v_0 (f13 f14 (f15 f16 (f15 f17 f18))))) (=> (= (f71 (f31 (f61 f62 ?v0) ?v_0) (f31 (f61 f62 ?v1) ?v_0)) f1) (=> (= (f72 f65 ?v1) f1) (= (f71 ?v0 ?v1) f1))))))
(assert (forall ((?v0 S2) (?v1 S2)) (let ((?v_0 (f13 f14 (f15 f16 (f15 f17 f18))))) (=> (= (f47 (f9 (f10 f57 ?v0) ?v_0) (f9 (f10 f57 ?v1) ?v_0)) f1) (=> (= (f48 f45 ?v1) f1) (= (f47 ?v0 ?v1) f1))))))
(assert (= (f3 f22 f45) f68))
(assert (= (f3 f22 f19) f68))
(assert (forall ((?v0 S2) (?v1 S2)) (=> (= (f47 f45 ?v0) f1) (=> (= (f47 ?v0 ?v1) f1) (= (f41 (f42 f43 (f20 f21 (f3 (f20 f21 (f5 (f6 f7 f68) (f3 f22 ?v1))) ?v0))) (f44 f45 ?v1)) f70)))))
(assert (forall ((?v0 S2)) (= (f3 (f20 f21 (f3 f22 ?v0)) ?v0) f68)))
(assert (forall ((?v0 S4) (?v1 S4) (?v2 S4) (?v3 S4)) (let ((?v_0 (f6 f58 ?v0))) (= (f5 (f6 f58 (f5 ?v_0 ?v1)) (f5 (f6 f58 ?v2) ?v3)) (f5 (f6 f58 (f5 ?v_0 ?v2)) (f5 (f6 f58 ?v1) ?v3))))))
(assert (forall ((?v0 S2) (?v1 S2) (?v2 S2) (?v3 S2)) (let ((?v_0 (f10 f12 ?v0))) (= (f9 (f10 f12 (f9 ?v_0 ?v1)) (f9 (f10 f12 ?v2) ?v3)) (f9 (f10 f12 (f9 ?v_0 ?v2)) (f9 (f10 f12 ?v1) ?v3))))))
(assert (forall ((?v0 S10) (?v1 S10) (?v2 S10) (?v3 S10)) (let ((?v_0 (f55 f63 ?v0))) (= (f15 (f55 f63 (f15 ?v_0 ?v1)) (f15 (f55 f63 ?v2) ?v3)) (f15 (f55 f63 (f15 ?v_0 ?v2)) (f15 (f55 f63 ?v1) ?v3))))))
(assert (forall ((?v0 S4) (?v1 S4) (?v2 S4) (?v3 S4)) (let ((?v_1 (f6 f58 (f5 (f6 f58 ?v0) ?v1))) (?v_0 (f6 f58 ?v2))) (= (f5 ?v_1 (f5 ?v_0 ?v3)) (f5 ?v_0 (f5 ?v_1 ?v3))))))
(assert (forall ((?v0 S2) (?v1 S2) (?v2 S2) (?v3 S2)) (let ((?v_1 (f10 f12 (f9 (f10 f12 ?v0) ?v1))) (?v_0 (f10 f12 ?v2))) (= (f9 ?v_1 (f9 ?v_0 ?v3)) (f9 ?v_0 (f9 ?v_1 ?v3))))))
(assert (forall ((?v0 S10) (?v1 S10) (?v2 S10) (?v3 S10)) (let ((?v_1 (f55 f63 (f15 (f55 f63 ?v0) ?v1))) (?v_0 (f55 f63 ?v2))) (= (f15 ?v_1 (f15 ?v_0 ?v3)) (f15 ?v_0 (f15 ?v_1 ?v3))))))
(assert (forall ((?v0 S4) (?v1 S4) (?v2 S4) (?v3 S4)) (let ((?v_0 (f6 f58 ?v0)) (?v_1 (f5 (f6 f58 ?v2) ?v3))) (= (f5 (f6 f58 (f5 ?v_0 ?v1)) ?v_1) (f5 ?v_0 (f5 (f6 f58 ?v1) ?v_1))))))
(assert (forall ((?v0 S2) (?v1 S2) (?v2 S2) (?v3 S2)) (let ((?v_0 (f10 f12 ?v0)) (?v_1 (f9 (f10 f12 ?v2) ?v3))) (= (f9 (f10 f12 (f9 ?v_0 ?v1)) ?v_1) (f9 ?v_0 (f9 (f10 f12 ?v1) ?v_1))))))
(assert (forall ((?v0 S10) (?v1 S10) (?v2 S10) (?v3 S10)) (let ((?v_0 (f55 f63 ?v0)) (?v_1 (f15 (f55 f63 ?v2) ?v3))) (= (f15 (f55 f63 (f15 ?v_0 ?v1)) ?v_1) (f15 ?v_0 (f15 (f55 f63 ?v1) ?v_1))))))
(assert (forall ((?v0 S4) (?v1 S4) (?v2 S4)) (let ((?v_0 (f6 f58 ?v0))) (= (f5 (f6 f58 (f5 ?v_0 ?v1)) ?v2) (f5 (f6 f58 (f5 ?v_0 ?v2)) ?v1)))))
(assert (forall ((?v0 S2) (?v1 S2) (?v2 S2)) (let ((?v_0 (f10 f12 ?v0))) (= (f9 (f10 f12 (f9 ?v_0 ?v1)) ?v2) (f9 (f10 f12 (f9 ?v_0 ?v2)) ?v1)))))
(assert (forall ((?v0 S10) (?v1 S10) (?v2 S10)) (let ((?v_0 (f55 f63 ?v0))) (= (f15 (f55 f63 (f15 ?v_0 ?v1)) ?v2) (f15 (f55 f63 (f15 ?v_0 ?v2)) ?v1)))))
(assert (forall ((?v0 S4) (?v1 S4) (?v2 S4)) (let ((?v_0 (f6 f58 ?v0))) (= (f5 (f6 f58 (f5 ?v_0 ?v1)) ?v2) (f5 ?v_0 (f5 (f6 f58 ?v1) ?v2))))))
(assert (forall ((?v0 S2) (?v1 S2) (?v2 S2)) (let ((?v_0 (f10 f12 ?v0))) (= (f9 (f10 f12 (f9 ?v_0 ?v1)) ?v2) (f9 ?v_0 (f9 (f10 f12 ?v1) ?v2))))))
(assert (forall ((?v0 S10) (?v1 S10) (?v2 S10)) (let ((?v_0 (f55 f63 ?v0))) (= (f15 (f55 f63 (f15 ?v_0 ?v1)) ?v2) (f15 ?v_0 (f15 (f55 f63 ?v1) ?v2))))))
(assert (forall ((?v0 S4) (?v1 S4) (?v2 S4)) (let ((?v_0 (f6 f58 ?v0))) (= (f5 ?v_0 (f5 (f6 f58 ?v1) ?v2)) (f5 (f6 f58 (f5 ?v_0 ?v1)) ?v2)))))
(assert (forall ((?v0 S2) (?v1 S2) (?v2 S2)) (let ((?v_0 (f10 f12 ?v0))) (= (f9 ?v_0 (f9 (f10 f12 ?v1) ?v2)) (f9 (f10 f12 (f9 ?v_0 ?v1)) ?v2)))))
(assert (forall ((?v0 S10) (?v1 S10) (?v2 S10)) (let ((?v_0 (f55 f63 ?v0))) (= (f15 ?v_0 (f15 (f55 f63 ?v1) ?v2)) (f15 (f55 f63 (f15 ?v_0 ?v1)) ?v2)))))
(assert (forall ((?v0 S4) (?v1 S4) (?v2 S4)) (let ((?v_1 (f6 f58 ?v0)) (?v_0 (f6 f58 ?v1))) (= (f5 ?v_1 (f5 ?v_0 ?v2)) (f5 ?v_0 (f5 ?v_1 ?v2))))))
(assert (forall ((?v0 S2) (?v1 S2) (?v2 S2)) (let ((?v_1 (f10 f12 ?v0)) (?v_0 (f10 f12 ?v1))) (= (f9 ?v_1 (f9 ?v_0 ?v2)) (f9 ?v_0 (f9 ?v_1 ?v2))))))
(assert (forall ((?v0 S10) (?v1 S10) (?v2 S10)) (let ((?v_1 (f55 f63 ?v0)) (?v_0 (f55 f63 ?v1))) (= (f15 ?v_1 (f15 ?v_0 ?v2)) (f15 ?v_0 (f15 ?v_1 ?v2))))))
(assert (forall ((?v0 S4) (?v1 S4)) (= (f5 (f6 f58 ?v0) ?v1) (f5 (f6 f58 ?v1) ?v0))))
(assert (forall ((?v0 S2) (?v1 S2)) (= (f9 (f10 f12 ?v0) ?v1) (f9 (f10 f12 ?v1) ?v0))))
(assert (forall ((?v0 S10) (?v1 S10)) (= (f15 (f55 f63 ?v0) ?v1) (f15 (f55 f63 ?v1) ?v0))))
(assert (forall ((?v0 S2) (?v1 S2) (?v2 S2) (?v3 S2)) (let ((?v_0 (f10 f11 ?v0))) (= (f9 (f10 f11 (f9 ?v_0 ?v1)) (f9 (f10 f11 ?v2) ?v3)) (f9 (f10 f11 (f9 ?v_0 ?v2)) (f9 (f10 f11 ?v1) ?v3))))))
(assert (forall ((?v0 S4) (?v1 S4) (?v2 S4) (?v3 S4)) (let ((?v_0 (f6 f46 ?v0))) (= (f5 (f6 f46 (f5 ?v_0 ?v1)) (f5 (f6 f46 ?v2) ?v3)) (f5 (f6 f46 (f5 ?v_0 ?v2)) (f5 (f6 f46 ?v1) ?v3))))))
(assert (forall ((?v0 S10) (?v1 S10) (?v2 S10) (?v3 S10)) (let ((?v_0 (f55 f56 ?v0))) (= (f15 (f55 f56 (f15 ?v_0 ?v1)) (f15 (f55 f56 ?v2) ?v3)) (f15 (f55 f56 (f15 ?v_0 ?v2)) (f15 (f55 f56 ?v1) ?v3))))))
(assert (forall ((?v0 S2) (?v1 S2) (?v2 S2)) (let ((?v_0 (f10 f11 ?v0))) (= (f9 (f10 f11 (f9 ?v_0 ?v1)) ?v2) (f9 (f10 f11 (f9 ?v_0 ?v2)) ?v1)))))
(assert (forall ((?v0 S4) (?v1 S4) (?v2 S4)) (let ((?v_0 (f6 f46 ?v0))) (= (f5 (f6 f46 (f5 ?v_0 ?v1)) ?v2) (f5 (f6 f46 (f5 ?v_0 ?v2)) ?v1)))))
(assert (forall ((?v0 S10) (?v1 S10) (?v2 S10)) (let ((?v_0 (f55 f56 ?v0))) (= (f15 (f55 f56 (f15 ?v_0 ?v1)) ?v2) (f15 (f55 f56 (f15 ?v_0 ?v2)) ?v1)))))
(assert (forall ((?v0 S2) (?v1 S2) (?v2 S2)) (let ((?v_0 (f10 f11 ?v0))) (= (f9 (f10 f11 (f9 ?v_0 ?v1)) ?v2) (f9 ?v_0 (f9 (f10 f11 ?v1) ?v2))))))
(assert (forall ((?v0 S4) (?v1 S4) (?v2 S4)) (let ((?v_0 (f6 f46 ?v0))) (= (f5 (f6 f46 (f5 ?v_0 ?v1)) ?v2) (f5 ?v_0 (f5 (f6 f46 ?v1) ?v2))))))
(assert (forall ((?v0 S10) (?v1 S10) (?v2 S10)) (let ((?v_0 (f55 f56 ?v0))) (= (f15 (f55 f56 (f15 ?v_0 ?v1)) ?v2) (f15 ?v_0 (f15 (f55 f56 ?v1) ?v2))))))
(assert (forall ((?v0 S2) (?v1 S2) (?v2 S2)) (let ((?v_0 (f10 f11 ?v0))) (= (f9 ?v_0 (f9 (f10 f11 ?v1) ?v2)) (f9 (f10 f11 (f9 ?v_0 ?v1)) ?v2)))))
(assert (forall ((?v0 S4) (?v1 S4) (?v2 S4)) (let ((?v_0 (f6 f46 ?v0))) (= (f5 ?v_0 (f5 (f6 f46 ?v1) ?v2)) (f5 (f6 f46 (f5 ?v_0 ?v1)) ?v2)))))
(assert (forall ((?v0 S10) (?v1 S10) (?v2 S10)) (let ((?v_0 (f55 f56 ?v0))) (= (f15 ?v_0 (f15 (f55 f56 ?v1) ?v2)) (f15 (f55 f56 (f15 ?v_0 ?v1)) ?v2)))))
(assert (forall ((?v0 S2) (?v1 S2) (?v2 S2)) (let ((?v_1 (f10 f11 ?v0)) (?v_0 (f10 f11 ?v1))) (= (f9 ?v_1 (f9 ?v_0 ?v2)) (f9 ?v_0 (f9 ?v_1 ?v2))))))
(assert (forall ((?v0 S4) (?v1 S4) (?v2 S4)) (let ((?v_1 (f6 f46 ?v0)) (?v_0 (f6 f46 ?v1))) (= (f5 ?v_1 (f5 ?v_0 ?v2)) (f5 ?v_0 (f5 ?v_1 ?v2))))))
(assert (forall ((?v0 S10) (?v1 S10) (?v2 S10)) (let ((?v_1 (f55 f56 ?v0)) (?v_0 (f55 f56 ?v1))) (= (f15 ?v_1 (f15 ?v_0 ?v2)) (f15 ?v_0 (f15 ?v_1 ?v2))))))
(assert (forall ((?v0 S2) (?v1 S2)) (= (f9 (f10 f11 ?v0) ?v1) (f9 (f10 f11 ?v1) ?v0))))
(assert (forall ((?v0 S4) (?v1 S4)) (= (f5 (f6 f46 ?v0) ?v1) (f5 (f6 f46 ?v1) ?v0))))
(assert (forall ((?v0 S10) (?v1 S10)) (= (f15 (f55 f56 ?v0) ?v1) (f15 (f55 f56 ?v1) ?v0))))
(assert (forall ((?v0 S2) (?v1 S2)) (=> (= (f47 f45 ?v0) f1) (=> (= (f47 ?v0 ?v1) f1) (= (f41 (f42 f43 (f20 f21 (f3 (f20 f21 (f3 f22 ?v1)) ?v0))) (f44 f45 ?v1)) f70)))))
(assert (forall ((?v0 S10)) (= (= (f71 f65 (f31 (f61 f62 ?v0) (f13 f14 (f15 f16 (f15 f17 f18))))) f1) (not (= ?v0 f65)))))
(assert (forall ((?v0 S10)) (not (= (f71 (f31 (f61 f62 ?v0) (f13 f14 (f15 f16 (f15 f17 f18)))) f65) f1))))
(assert (forall ((?v0 S10) (?v1 S10)) (let ((?v_0 (f13 f14 (f15 f16 (f15 f17 f18))))) (=> (= (f31 (f61 f62 ?v0) ?v_0) (f31 (f61 f62 ?v1) ?v_0)) (=> (= (f72 f65 ?v0) f1) (=> (= (f72 f65 ?v1) f1) (= ?v0 ?v1)))))))
(assert (forall ((?v0 S2) (?v1 S2)) (let ((?v_0 (f13 f14 (f15 f16 (f15 f17 f18))))) (=> (= (f9 (f10 f57 ?v0) ?v_0) (f9 (f10 f57 ?v1) ?v_0)) (=> (= (f48 f45 ?v0) f1) (=> (= (f48 f45 ?v1) f1) (= ?v0 ?v1)))))))
(assert (forall ((?v0 S10) (?v1 S10)) (let ((?v_0 (f13 f14 (f15 f16 (f15 f17 f18))))) (=> (= (f72 (f31 (f61 f62 ?v0) ?v_0) (f31 (f61 f62 ?v1) ?v_0)) f1) (=> (= (f72 f65 ?v1) f1) (= (f72 ?v0 ?v1) f1))))))
(assert (forall ((?v0 S2) (?v1 S2)) (let ((?v_0 (f13 f14 (f15 f16 (f15 f17 f18))))) (=> (= (f48 (f9 (f10 f57 ?v0) ?v_0) (f9 (f10 f57 ?v1) ?v_0)) f1) (=> (= (f48 f45 ?v1) f1) (= (f48 ?v0 ?v1) f1))))))
(assert (forall ((?v0 S10)) (= (f72 f65 (f31 (f61 f62 ?v0) (f13 f14 (f15 f16 (f15 f17 f18))))) f1)))
(assert (forall ((?v0 S2) (?v1 S2) (?v2 S2)) (let ((?v_0 (f10 f12 ?v0))) (=> (= (f47 f45 ?v0) f1) (= (f3 (f20 f21 (f3 f22 (f9 ?v_0 ?v1))) (f9 ?v_0 ?v2)) (f3 (f20 f21 (f3 f22 ?v1)) ?v2))))))
(assert (forall ((?v0 S10) (?v1 S10)) (let ((?v_0 (f13 f14 (f15 f16 (f15 f17 f18))))) (= (= (f71 f65 (f15 (f55 f56 (f31 (f61 f62 ?v0) ?v_0)) (f31 (f61 f62 ?v1) ?v_0))) f1) (or (not (= ?v0 f65)) (not (= ?v1 f65)))))))
(assert (forall ((?v0 S10) (?v1 S10)) (let ((?v_0 (f13 f14 (f15 f16 (f15 f17 f18))))) (not (= (f71 (f15 (f55 f56 (f31 (f61 f62 ?v0) ?v_0)) (f31 (f61 f62 ?v1) ?v_0)) f65) f1)))))
(assert (forall ((?v0 S10) (?v1 S10)) (let ((?v_0 (f13 f14 (f15 f16 (f15 f17 f18))))) (= (= (f72 (f15 (f55 f56 (f31 (f61 f62 ?v0) ?v_0)) (f31 (f61 f62 ?v1) ?v_0)) f65) f1) (and (= ?v0 f65) (= ?v1 f65))))))
(assert (forall ((?v0 S10) (?v1 S10)) (let ((?v_0 (f13 f14 (f15 f16 (f15 f17 f18))))) (= (f72 f65 (f15 (f55 f56 (f31 (f61 f62 ?v0) ?v_0)) (f31 (f61 f62 ?v1) ?v_0))) f1))))
(assert (forall ((?v0 S2) (?v1 S3) (?v2 S2)) (let ((?v_0 (f9 (f10 f12 (f13 f14 (f15 f16 (f15 f17 f18)))) ?v0)) (?v_1 (f66 f67 ?v0))) (= (f3 (f27 (f66 f67 ?v_0) ?v1) ?v2) (f5 (f6 f46 (f3 (f27 ?v_1 (f27 f34 ?v1)) ?v2)) (f5 (f6 f58 (f3 (f20 f21 (f5 (f6 f7 f68) (f3 f22 ?v_0))) ?v2)) (f3 (f27 ?v_1 (f27 f28 ?v1)) ?v2)))))))
(assert (forall ((?v0 S10) (?v1 S2)) (= (f72 f65 (f31 (f61 f62 ?v0) (f9 (f10 f12 (f13 f14 (f15 f16 (f15 f17 f18)))) ?v1))) f1)))
(assert (forall ((?v0 S4)) (= (f5 (f6 f58 ?v0) f70) f70)))
(assert (forall ((?v0 S10)) (= (f15 (f55 f63 ?v0) f65) f65)))
(assert (forall ((?v0 S2)) (= (f9 (f10 f12 ?v0) f45) f45)))
(assert (forall ((?v0 S4)) (= (f5 (f6 f58 f70) ?v0) f70)))
(assert (forall ((?v0 S10)) (= (f15 (f55 f63 f65) ?v0) f65)))
(assert (forall ((?v0 S2)) (= (f9 (f10 f12 f45) ?v0) f45)))
(assert (forall ((?v0 S2) (?v1 S2)) (= (= ?v0 (f9 (f10 f11 ?v0) ?v1)) (= ?v1 f45))))
(assert (forall ((?v0 S4) (?v1 S4)) (= (= ?v0 (f5 (f6 f46 ?v0) ?v1)) (= ?v1 f70))))
(assert (forall ((?v0 S10) (?v1 S10)) (= (= ?v0 (f15 (f55 f56 ?v0) ?v1)) (= ?v1 f65))))
(assert (forall ((?v0 S2)) (= (f9 (f10 f11 ?v0) f45) ?v0)))
(assert (forall ((?v0 S4)) (= (f5 (f6 f46 ?v0) f70) ?v0)))
(assert (forall ((?v0 S10)) (= (f15 (f55 f56 ?v0) f65) ?v0)))
(assert (forall ((?v0 S2)) (= (f9 (f10 f11 f45) ?v0) ?v0)))
(assert (forall ((?v0 S4)) (= (f5 (f6 f46 f70) ?v0) ?v0)))
(assert (forall ((?v0 S10)) (= (f15 (f55 f56 f65) ?v0) ?v0)))
(assert (forall ((?v0 S2) (?v1 S2) (?v2 S2) (?v3 S2)) (let ((?v_0 (f10 f12 ?v0)) (?v_1 (f10 f12 ?v2))) (= (= (f9 (f10 f11 (f9 ?v_0 ?v1)) (f9 ?v_1 ?v3)) (f9 (f10 f11 (f9 ?v_0 ?v3)) (f9 ?v_1 ?v1))) (or (= ?v0 ?v2) (= ?v1 ?v3))))))
(assert (forall ((?v0 S4) (?v1 S4) (?v2 S4) (?v3 S4)) (let ((?v_0 (f6 f58 ?v0)) (?v_1 (f6 f58 ?v2))) (= (= (f5 (f6 f46 (f5 ?v_0 ?v1)) (f5 ?v_1 ?v3)) (f5 (f6 f46 (f5 ?v_0 ?v3)) (f5 ?v_1 ?v1))) (or (= ?v0 ?v2) (= ?v1 ?v3))))))
(assert (forall ((?v0 S10) (?v1 S10) (?v2 S10) (?v3 S10)) (let ((?v_0 (f55 f63 ?v0)) (?v_1 (f55 f63 ?v2))) (= (= (f15 (f55 f56 (f15 ?v_0 ?v1)) (f15 ?v_1 ?v3)) (f15 (f55 f56 (f15 ?v_0 ?v3)) (f15 ?v_1 ?v1))) (or (= ?v0 ?v2) (= ?v1 ?v3))))))
(assert (forall ((?v0 S2) (?v1 S2) (?v2 S2)) (= (f9 (f10 f11 (f9 (f10 f12 ?v0) ?v1)) (f9 (f10 f12 ?v2) ?v1)) (f9 (f10 f12 (f9 (f10 f11 ?v0) ?v2)) ?v1))))
(assert (forall ((?v0 S4) (?v1 S4) (?v2 S4)) (= (f5 (f6 f46 (f5 (f6 f58 ?v0) ?v1)) (f5 (f6 f58 ?v2) ?v1)) (f5 (f6 f58 (f5 (f6 f46 ?v0) ?v2)) ?v1))))
(assert (forall ((?v0 S10) (?v1 S10) (?v2 S10)) (= (f15 (f55 f56 (f15 (f55 f63 ?v0) ?v1)) (f15 (f55 f63 ?v2) ?v1)) (f15 (f55 f63 (f15 (f55 f56 ?v0) ?v2)) ?v1))))
(assert (forall ((?v0 S2) (?v1 S2) (?v2 S2)) (= (f9 (f10 f12 (f9 (f10 f11 ?v0) ?v1)) ?v2) (f9 (f10 f11 (f9 (f10 f12 ?v0) ?v2)) (f9 (f10 f12 ?v1) ?v2)))))
(assert (forall ((?v0 S4) (?v1 S4) (?v2 S4)) (= (f5 (f6 f58 (f5 (f6 f46 ?v0) ?v1)) ?v2) (f5 (f6 f46 (f5 (f6 f58 ?v0) ?v2)) (f5 (f6 f58 ?v1) ?v2)))))
(assert (forall ((?v0 S10) (?v1 S10) (?v2 S10)) (= (f15 (f55 f63 (f15 (f55 f56 ?v0) ?v1)) ?v2) (f15 (f55 f56 (f15 (f55 f63 ?v0) ?v2)) (f15 (f55 f63 ?v1) ?v2)))))
(assert (forall ((?v0 S2) (?v1 S2) (?v2 S2) (?v3 S2)) (let ((?v_0 (f10 f12 ?v0)) (?v_1 (f10 f12 ?v1))) (= (and (not (= ?v0 ?v1)) (not (= ?v2 ?v3))) (not (= (f9 (f10 f11 (f9 ?v_0 ?v2)) (f9 ?v_1 ?v3)) (f9 (f10 f11 (f9 ?v_0 ?v3)) (f9 ?v_1 ?v2))))))))
(assert (forall ((?v0 S4) (?v1 S4) (?v2 S4) (?v3 S4)) (let ((?v_0 (f6 f58 ?v0)) (?v_1 (f6 f58 ?v1))) (= (and (not (= ?v0 ?v1)) (not (= ?v2 ?v3))) (not (= (f5 (f6 f46 (f5 ?v_0 ?v2)) (f5 ?v_1 ?v3)) (f5 (f6 f46 (f5 ?v_0 ?v3)) (f5 ?v_1 ?v2))))))))
(assert (forall ((?v0 S10) (?v1 S10) (?v2 S10) (?v3 S10)) (let ((?v_0 (f55 f63 ?v0)) (?v_1 (f55 f63 ?v1))) (= (and (not (= ?v0 ?v1)) (not (= ?v2 ?v3))) (not (= (f15 (f55 f56 (f15 ?v_0 ?v2)) (f15 ?v_1 ?v3)) (f15 (f55 f56 (f15 ?v_0 ?v3)) (f15 ?v_1 ?v2))))))))
(check-sat)
(exit)
